28192670087542518005010,7,1,2,01,5,1,2,014,5,1,2,04,13,1,2,011,3,1,2,09,6,1,2,02,4,1,2,01,10,1,2,08,8,1,2,011,1,1,2,01,1,1,2,05,13,1,2,02,8,1,2,010,12,1,2,08,6,1,2,010,15,1,2,010,7,1,2,010,5,1,2,01,5,1,2,02,12,1,2,015,10,1,2,013,2,1,2,01,9,1,2,05,7,1,2,011,13,1,2,015,4,1,2,05,10,1,2,07,4,1,2,05,10,1,2,013,12,1,2,014,5,1,2,09,14,1,2,06,15,1,2,08,14,1,2,05,10,1,2,02,12,1,2,015,9,1,2,06,13,1,2,01,15,1,2,05,6,1,2,010,5,1,2,03,6,1,2,09,13,1,2,05,4,1,2,05,2,1,2,012,8,1,2,014,13,1,2,01,9,1,2,010,2,1,2,02,6,1,2,0